docs/examples/workforce.out
   Workers  Shift
1      Amy   Wed3
2      Amy   Fri5
3      Amy   Sun7
...
64      Gu   Sun7
69      Gu  Fri12
70      Gu  Sat13

Workers Amy Bob Cathy Dan Ed Fred Gu
Shift                               
Fri12     Y   -     Y   Y  -    Y  Y
Fri5      Y   -     Y   Y  Y    -  Y
Mon1      -   -     -   -  Y    Y  Y
Mon8      -   -     -   Y  Y    -  -
Sat13     Y   Y     Y   Y  Y    Y  Y
Sat6      -   Y     -   Y  -    Y  Y
Sun14     Y   -     Y   Y  Y    Y  -
Sun7      Y   -     Y   -  Y    -  Y
Thu11     Y   -     Y   Y  Y    -  -
Thu4      -   -     Y   -  Y    -  -
Tue2      -   -     -   Y  Y    -  -
Tue9      -   -     -   Y  Y    -  -
Wed10     Y   -     Y   Y  -    -  -
Wed3      Y   -     -   Y  Y    Y  -
