docs/examples/workforce.log
Gurobi Optimizer version 9.5.1 build v9.5.1rc2 (mac64[x86])
Thread count: 4 physical cores, 8 logical processors, using up to 8 threads
Optimize a model with 14 rows, 72 columns and 72 nonzeros
Model fingerprint: 0x494be3a7
Coefficient statistics:
  Matrix range     [1e+00, 1e+00]
  Objective range  [8e+00, 1e+01]
  Bounds range     [1e+00, 1e+00]
  RHS range        [2e+00, 7e+00]
Presolve removed 14 rows and 72 columns
Presolve time: 0.00s
Presolve: All rows and columns removed
Iteration    Objective       Primal Inf.    Dual Inf.      Time
       0    4.8000000e+02   0.000000e+00   1.480000e+02      0s
Extra simplex iterations after uncrush: 5
       5    4.8000000e+02   0.000000e+00   0.000000e+00      0s

Solved in 5 iterations and 0.00 seconds (0.00 work units)
Optimal objective  4.800000000e+02
